77572 76367 
79405 75636 
77762 76310 
76918 76509 
77018 76491 
80092 75173 
79834 75319 
78825 75834 
77208 76434 
76494 76536 
76012 76595 
76315 76589 
76594 76518 
76415 76571 
80665 74819 
80345 75018 
80177 75136 
80412 74972 
79032 75696 
78320 76117 
75891 76616 
75409 76675 
75991 76598 
80979 74618 
81321 74397 
80726 74771 
81474 74269 
81062 74550 
78840 75826 
78640 75918 
79139 75647 
75085 76684 
75684 76665 
75062 76702 
74778 76751 
82347 73597 
82118 73761 
83151 72935 
82244 73660 
81860 73968 
81707 74096 
83048 72998 
